p cnf 7230 16
6959 -6988 0
-4634 -6957 -6989 0
4634 -6990 0
6959 -6992 0
-4636 -6988 -6991 0
6993 6994 0
6961 -6994 0
-6961 -6993 0
6989 6990 0
6987 6988 0
-6959 -6987 0
6991 6992 0
6957 -6990 0
4636 -6992 0
6985 6986 0
-6985 -6986 0
